CUST NO.  XCOORD.    YCOORD.     DEMAND   READY TIME   DUE DATE   SERVICE TIME
    1      40.00      50.00       0.00       0.00    3390.00       0.00
    2      52.00      75.00      10.00     302.00     479.00      90.00
    3      45.00      70.00      30.00     157.00     428.00      90.00
    4      62.00      69.00      10.00    1138.00    1355.00      90.00
    5      60.00      66.00      10.00    1247.00    1434.00      90.00
    6      42.00      65.00      10.00      15.00     208.00      90.00
    7      16.00      42.00      20.00     209.00     944.00      90.00
    8      58.00      70.00      20.00    1059.00    1246.00      90.00
    9      34.00      60.00      20.00    2035.00    3288.00      90.00
